c clasp version 2.1.1
c Reading from pb_200_06.cnf
c Solving...
s UNKNOWN

c TIME LIMIT    : 1
c Models        : 0+    
c Time          : 100000.128s (Solving: 99999.53s 1st Model: 0.00s Unsat: 0.00s)
c CPU Time      : 99839.610s
c Choices       : 188406700
c Conflicts     : 120468395
c Restarts      : 32     (Average: 3764637.34 Last: 110448436)

c Variables     : 198080 (Eliminated:    4 Frozen:    0)
c Constraints   : 193995 (Binary: 59.2% Ternary: 38.3% Other:  2.5%)
c Lemmas        : 120468395 (Binary:  0.0% Ternary:  0.0% Other:100.0%)
c   Conflict    : 120468395 (Average Length: 793.9) 
c   Loop        : 0      (Average Length: 0.0) 
c   Other       : 0      (Average Length: 0.0)
c   Deleted     : 120349125
